;(set-option :produce-unsat-cores true )
(set-logic ALL_SUPPORTED )
(declare-sort A$ 0 )
(declare-sort Nat$ 0 )
(declare-sort A_set$ 0 )
(declare-sort A_a_fun$ 0 )
(declare-sort A_bool_fun$ 0 )
(declare-datatypes ()((Nat_option$ (none$ )(some$ (the$ Nat$ )))(Enat$ (abs_enat$ (rep_enat$ Nat_option$ )))))
(declare-sort A_llist$ 0)
(declare-fun lNil$ ()A_llist$)
(declare-fun lhd$ (A_llist$)A$)
(declare-fun ltl$ (A_llist$)A_llist$)
(declare-fun lCons$ (A$ A_llist$ )A_llist$)
(declare-fun m$ ()Nat$ )
(declare-fun n$ ()Nat$ )
(declare-fun p$ ()A_bool_fun$ )
(declare-fun uu$ ()A_bool_fun$ )
(declare-fun uua$ ()A_bool_fun$ )
(declare-fun xsa$ ()A_llist$ )
(declare-fun enat$ (Nat$ )Enat$ )
(declare-fun less$ (Enat$ Enat$ )Bool )
(declare-fun lmap$ (A_a_fun$ A_llist$ )A_llist$ )
(declare-fun lnth$ (A_llist$ Nat$ )A$ )
(declare-fun lset$ (A_llist$ )A_set$ )
(declare-fun less$a (Nat$ Nat$ )Bool )
(declare-fun lnull$ (A_llist$ )Bool )
(declare-fun member$ (A$ A_set$ )Bool )
(declare-fun fun_app$ (A_bool_fun$ A$ )Bool )
(declare-fun lfilter$ (A_bool_fun$ A_llist$ )A_llist$ )
(declare-fun lfinite$ (A_llist$ )Bool )
(declare-fun llength$ (A_llist$ )Enat$ )
(declare-fun lprefix$ (A_llist$ A_llist$ )Bool )
(declare-fun fun_app$a (A_a_fun$ A$ )A$ )
(declare-fun the_enat$ (Enat$ )Nat$ )
(declare-fun ldistinct$ (A_llist$ )Bool )
(declare-fun ltakeWhile$ (A_bool_fun$ A_llist$ )A_llist$ )
(assert (! (forall ((?v0 A$ ))(! (= (fun_app$ uu$ ?v0 )(not (fun_app$ p$ ?v0 ))):pattern ((fun_app$ uu$ ?v0 )))):named a0 ))
(assert (! (forall ((?v0 A$ ))(! (= (fun_app$ uua$ ?v0 )true ):pattern ((fun_app$ uua$ ?v0 )))):named a1 ))
(assert (! (not (exists ((?v0 Nat$ ))(and (less$ (enat$ ?v0 )(llength$ (ltakeWhile$ uu$ xsa$ )))(= (lnth$ (ltakeWhile$ uu$ xsa$ )?v0 )(lnth$ (ltakeWhile$ uu$ xsa$ )m$ ))))):named a2 ))
(assert (! (less$a m$ n$ ):named a3 ))
(assert (! (= (llength$ (ltakeWhile$ uu$ xsa$ ))(enat$ n$ )):named a4 ))
(assert (! (forall ((?v0 A_llist$ ))(= (ltakeWhile$ uua$ ?v0 )?v0 )):named a5 ))
(assert (! (=> (forall ((?v0 Nat$ ))(=> (= (llength$ (ltakeWhile$ uu$ xsa$ ))(enat$ ?v0 ))false ))false ):named a6 ))
(assert (! (not (lfinite$ xsa$ )):named a7 ))
(assert (! (forall ((?v0 A_bool_fun$ )(?v1 A_llist$ ))(= (= (llength$ (ltakeWhile$ ?v0 ?v1 ))(llength$ ?v1 ))(= (ltakeWhile$ ?v0 ?v1 )?v1 ))):named a8 ))
(assert (! (forall ((?v0 Nat$ )(?v1 A_bool_fun$ )(?v2 A_llist$ ))(=> (less$ (enat$ ?v0 )(llength$ (ltakeWhile$ ?v1 ?v2 )))(= (lnth$ (ltakeWhile$ ?v1 ?v2 )?v0 )(lnth$ ?v2 ?v0 )))):named a9 ))
(assert (! (forall ((?v0 Nat$ )(?v1 Nat$ ))(= (= (enat$ ?v0 )(enat$ ?v1 ))(= ?v0 ?v1 ))):named a10 ))
(assert (! (exists ((?v0 A$ ))(and (member$ ?v0 (lset$ xsa$ ))(fun_app$ p$ ?v0 ))):named a11 ))
(assert (! (forall ((?v0 Enat$ )(?v1 Nat$ ))(=> (less$ ?v0 (enat$ ?v1 ))(exists ((?v2 Nat$ ))(= ?v0 (enat$ ?v2 ))))):named a12 ))
(assert (! (forall ((?v0 A_bool_fun$ )(?v1 A_llist$ ))(=> (less$ (llength$ (ltakeWhile$ ?v0 ?v1 ))(llength$ ?v1 ))(not (fun_app$ ?v0 (lnth$ ?v1 (the_enat$ (llength$ (ltakeWhile$ ?v0 ?v1 )))))))):named a13 ))
(assert (! (forall ((?v0 Nat$ )(?v1 Nat$ ))(! (= (less$ (enat$ ?v0 )(enat$ ?v1 ))(less$a ?v0 ?v1 )):pattern ((less$ (enat$ ?v0 )(enat$ ?v1 ))))):named a14 ))
(assert (! (forall ((?v0 A_llist$ ))(= (ldistinct$ ?v0 )(forall ((?v1 Nat$ )(?v2 Nat$ ))(=> (and (less$ (enat$ ?v1 )(llength$ ?v0 ))(and (less$ (enat$ ?v2 )(llength$ ?v0 ))(not (= ?v1 ?v2 ))))(not (= (lnth$ ?v0 ?v1 )(lnth$ ?v0 ?v2 ))))))):named a15 ))
(assert (! (forall ((?v0 Nat$ )(?v1 A_llist$ )(?v2 A_a_fun$ ))(=> (less$ (enat$ ?v0 )(llength$ ?v1 ))(= (lnth$ (lmap$ ?v2 ?v1 )?v0 )(fun_app$a ?v2 (lnth$ ?v1 ?v0 ))))):named a16 ))
(assert (! (not (lnull$ (lfilter$ p$ xsa$ ))):named a17 ))
(assert (! (forall ((?v0 A_llist$ )(?v1 A_llist$ )(?v2 Nat$ ))(=> (and (lprefix$ ?v0 ?v1 )(less$ (enat$ ?v2 )(llength$ ?v0 )))(= (lnth$ ?v0 ?v2 )(lnth$ ?v1 ?v2 )))):named a18 ))
(check-sat )
;(get-unsat-core )
